clingo version 5.3.0
Reading from ...nchmarks/assign/currentInst/x31_y28.lp ...
Solving...
*** Info : (clingo): INTERRUPTED by signal!
Answer: 14
assign(robot(2),shelf(1)). assign(robot(1),shelf(2)). assign(robot(39),shelf(3)). assign(robot(3),shelf(4)). assign(robot(11),shelf(5)). assign(robot(15),shelf(6)). assign(robot(18),shelf(7)). assign(robot(14),shelf(8)). assign(robot(13),shelf(9)). assign(robot(12),shelf(10)). assign(robot(70),shelf(11)). assign(robot(17),shelf(12)). assign(robot(19),shelf(13)). assign(robot(9),shelf(14)). assign(robot(8),shelf(15)). assign(robot(7),shelf(16)). assign(robot(6),shelf(17)). assign(robot(20),shelf(18)). assign(robot(21),shelf(19)). assign(robot(4),shelf(20)). assign(robot(10),shelf(21)). assign(robot(22),shelf(22)). assign(robot(5),shelf(23)). assign(robot(23),shelf(24)). assign(robot(24),shelf(25)). assign(robot(239),shelf(26)). assign(robot(238),shelf(27)). assign(robot(237),shelf(28)). assign(robot(234),shelf(29)). assign(robot(233),shelf(30)). assign(robot(232),shelf(31)). assign(robot(229),shelf(32)). assign(robot(227),shelf(33)). assign(robot(226),shelf(34)). assign(robot(225),shelf(35)). assign(robot(224),shelf(36)). assign(robot(223),shelf(37)). assign(robot(149),shelf(38)). assign(robot(127),shelf(39)). assign(robot(126),shelf(40)). assign(robot(295),shelf(41)). assign(robot(290),shelf(42)). assign(robot(281),shelf(43)). assign(robot(130),shelf(44)). assign(robot(221),shelf(45)). assign(robot(26),shelf(46)). assign(robot(219),shelf(47)). assign(robot(218),shelf(48)). assign(robot(217),shelf(49)). assign(robot(216),shelf(50)). assign(robot(215),shelf(51)). assign(robot(214),shelf(52)). assign(robot(213),shelf(53)). assign(robot(212),shelf(54)). assign(robot(211),shelf(55)). assign(robot(210),shelf(56)). assign(robot(209),shelf(57)). assign(robot(208),shelf(58)). assign(robot(207),shelf(59)). assign(robot(206),shelf(60)). assign(robot(205),shelf(61)). assign(robot(204),shelf(62)). assign(robot(203),shelf(63)). assign(robot(202),shelf(64)). assign(robot(201),shelf(65)). assign(robot(200),shelf(66)). assign(robot(199),shelf(67)). assign(robot(177),shelf(68)). assign(robot(197),shelf(69)). assign(robot(196),shelf(70)). assign(robot(195),shelf(71)). assign(robot(194),shelf(72)). assign(robot(118),shelf(73)). assign(robot(192),shelf(74)). assign(robot(191),shelf(75)). assign(robot(266),shelf(76)). assign(robot(259),shelf(77)). assign(robot(247),shelf(78)). assign(robot(240),shelf(79)). assign(robot(289),shelf(80)). assign(robot(299),shelf(81)). assign(robot(254),shelf(82)). assign(robot(59),shelf(83)). assign(robot(249),shelf(84)). assign(robot(228),shelf(85)). assign(robot(292),shelf(86)). assign(robot(277),shelf(87)). assign(robot(190),shelf(88)). assign(robot(189),shelf(89)). assign(robot(287),shelf(90)). assign(robot(187),shelf(91)). assign(robot(186),shelf(92)). assign(robot(185),shelf(93)). assign(robot(184),shelf(94)). assign(robot(183),shelf(95)). assign(robot(246),shelf(96)). assign(robot(181),shelf(97)). assign(robot(180),shelf(98)). assign(robot(179),shelf(99)). assign(robot(174),shelf(100)). assign(robot(245),shelf(101)). assign(robot(176),shelf(102)). assign(robot(175),shelf(103)). assign(robot(84),shelf(104)). assign(robot(173),shelf(105)). assign(robot(172),shelf(106)). assign(robot(171),shelf(107)). assign(robot(170),shelf(108)). assign(robot(220),shelf(109)). assign(robot(168),shelf(110)). assign(robot(167),shelf(111)). assign(robot(166),shelf(112)). assign(robot(165),shelf(113)). assign(robot(164),shelf(114)). assign(robot(163),shelf(115)). assign(robot(162),shelf(116)). assign(robot(161),shelf(117)). assign(robot(160),shelf(118)). assign(robot(159),shelf(119)). assign(robot(158),shelf(120)). assign(robot(157),shelf(121)). assign(robot(156),shelf(122)). assign(robot(155),shelf(123)). assign(robot(96),shelf(124)). assign(robot(153),shelf(125)). assign(robot(152),shelf(126)). assign(robot(151),shelf(127)). assign(robot(150),shelf(128)). assign(robot(148),shelf(129)). assign(robot(147),shelf(130)). assign(robot(146),shelf(131)). assign(robot(145),shelf(132)). assign(robot(144),shelf(133)). assign(robot(143),shelf(134)). assign(robot(142),shelf(135)). assign(robot(141),shelf(136)). assign(robot(140),shelf(137)). assign(robot(139),shelf(138)). assign(robot(138),shelf(139)). assign(robot(137),shelf(140)). assign(robot(136),shelf(141)). assign(robot(135),shelf(142)). assign(robot(134),shelf(143)). assign(robot(133),shelf(144)). assign(robot(132),shelf(145)). assign(robot(131),shelf(146)). assign(robot(106),shelf(147)). assign(robot(129),shelf(148)). assign(robot(128),shelf(149)). assign(robot(300),shelf(150)). assign(robot(275),shelf(151)). assign(robot(284),shelf(152)). assign(robot(293),shelf(153)). assign(robot(288),shelf(154)). assign(robot(235),shelf(155)). assign(robot(296),shelf(156)). assign(robot(257),shelf(157)). assign(robot(169),shelf(158)). assign(robot(291),shelf(159)). assign(robot(278),shelf(160)). assign(robot(297),shelf(161)). assign(robot(269),shelf(162)). assign(robot(178),shelf(163)). assign(robot(286),shelf(164)). assign(robot(264),shelf(165)). assign(robot(268),shelf(166)). assign(robot(263),shelf(167)). assign(robot(251),shelf(168)). assign(robot(252),shelf(169)). assign(robot(255),shelf(170)). assign(robot(273),shelf(171)). assign(robot(298),shelf(172)). assign(robot(267),shelf(173)). assign(robot(236),shelf(174)). assign(robot(231),shelf(175)). assign(robot(125),shelf(176)). assign(robot(124),shelf(177)). assign(robot(123),shelf(178)). assign(robot(122),shelf(179)). assign(robot(121),shelf(180)). assign(robot(120),shelf(181)). assign(robot(119),shelf(182)). assign(robot(283),shelf(183)). assign(robot(117),shelf(184)). assign(robot(116),shelf(185)). assign(robot(115),shelf(186)). assign(robot(114),shelf(187)). assign(robot(113),shelf(188)). assign(robot(112),shelf(189)). assign(robot(111),shelf(190)). assign(robot(110),shelf(191)). assign(robot(109),shelf(192)). assign(robot(108),shelf(193)). assign(robot(107),shelf(194)). assign(robot(182),shelf(195)). assign(robot(105),shelf(196)). assign(robot(104),shelf(197)). assign(robot(103),shelf(198)). assign(robot(102),shelf(199)). assign(robot(101),shelf(200)). assign(robot(100),shelf(201)). assign(robot(99),shelf(202)). assign(robot(98),shelf(203)). assign(robot(97),shelf(204)). assign(robot(222),shelf(205)). assign(robot(95),shelf(206)). assign(robot(94),shelf(207)). assign(robot(93),shelf(208)). assign(robot(92),shelf(209)). assign(robot(91),shelf(210)). assign(robot(90),shelf(211)). assign(robot(89),shelf(212)). assign(robot(88),shelf(213)). assign(robot(87),shelf(214)). assign(robot(86),shelf(215)). assign(robot(193),shelf(216)). assign(robot(258),shelf(217)). assign(robot(83),shelf(218)). assign(robot(82),shelf(219)). assign(robot(81),shelf(220)). assign(robot(80),shelf(221)). assign(robot(79),shelf(222)). assign(robot(78),shelf(223)). assign(robot(77),shelf(224)). assign(robot(76),shelf(225)). assign(robot(75),shelf(226)). assign(robot(74),shelf(227)). assign(robot(73),shelf(228)). assign(robot(72),shelf(229)). assign(robot(71),shelf(230)). assign(robot(262),shelf(231)). assign(robot(69),shelf(232)). assign(robot(68),shelf(233)). assign(robot(67),shelf(234)). assign(robot(66),shelf(235)). assign(robot(65),shelf(236)). assign(robot(64),shelf(237)). assign(robot(63),shelf(238)). assign(robot(62),shelf(239)). assign(robot(61),shelf(240)). assign(robot(60),shelf(241)). assign(robot(243),shelf(242)). assign(robot(58),shelf(243)). assign(robot(57),shelf(244)). assign(robot(56),shelf(245)). assign(robot(55),shelf(246)). assign(robot(54),shelf(247)). assign(robot(53),shelf(248)). assign(robot(52),shelf(249)). assign(robot(51),shelf(250)). assign(robot(50),shelf(251)). assign(robot(49),shelf(252)). assign(robot(48),shelf(253)). assign(robot(47),shelf(254)). assign(robot(46),shelf(255)). assign(robot(45),shelf(256)). assign(robot(44),shelf(257)). assign(robot(43),shelf(258)). assign(robot(42),shelf(259)). assign(robot(41),shelf(260)). assign(robot(40),shelf(261)). assign(robot(38),shelf(262)). assign(robot(37),shelf(263)). assign(robot(36),shelf(264)). assign(robot(35),shelf(265)). assign(robot(34),shelf(266)). assign(robot(33),shelf(267)). assign(robot(32),shelf(268)). assign(robot(31),shelf(269)). assign(robot(30),shelf(270)). assign(robot(29),shelf(271)). assign(robot(28),shelf(272)). assign(robot(27),shelf(273)). assign(robot(16),shelf(274)). assign(robot(25),shelf(275)). assign(robot(198),shelf(276)). assign(robot(285),shelf(277)). assign(robot(85),shelf(278)). assign(robot(261),shelf(279)). assign(robot(270),shelf(280)). assign(robot(250),shelf(281)). assign(robot(242),shelf(282)). assign(robot(271),shelf(283)). assign(robot(256),shelf(284)). assign(robot(244),shelf(285)). assign(robot(154),shelf(286)). assign(robot(265),shelf(287)). assign(robot(253),shelf(288)). assign(robot(272),shelf(289)). assign(robot(188),shelf(290)). assign(robot(282),shelf(291)). assign(robot(241),shelf(292)). assign(robot(280),shelf(293)). assign(robot(260),shelf(294)). assign(robot(248),shelf(295)). assign(robot(276),shelf(296)). assign(robot(279),shelf(297)). assign(robot(274),shelf(298)). assign(robot(294),shelf(299)). assign(robot(230),shelf(300)).
SATISFIABLE

INTERRUPTED  : 1
Models       : 14+
  Optimum    : unknown
Optimization : 7022
Calls        : 1
Time         : 59.970s (Solving: 58.69s 1st Model: 0.02s Unsat: 0.00s)
CPU Time     : 59.948s

Choices      : 437927  
Conflicts    : 192026   (Analyzed: 192026)
Restarts     : 510      (Average: 376.52 Last: 187899)
Model-Level  : 6325.3  
Problems     : 1        (Average Length: 0.00 Splits: 0)
Lemmas       : 192026   (Deleted: 183768)
  Binary     : 0        (Ratio:   0.00%)
  Ternary    : 0        (Ratio:   0.00%)
  Conflict   : 192026   (Average Length:  304.7 Ratio: 100.00%) 
  Loop       : 0        (Average Length:    0.0 Ratio:   0.00%) 
  Other      : 0        (Average Length:    0.0 Ratio:   0.00%) 
Backjumps    : 192026   (Average:  1.27 Max:  43 Sum: 243342)
  Executed   : 192026   (Average:  1.27 Max:  43 Sum: 243342 Ratio: 100.00%)
  Bounded    : 0        (Average:  0.00 Max:   0 Sum:      0 Ratio:   0.00%)

Rules        : 308950   (Original: 279175)
  Choice     : 90000   
  Minimize   : 1       
Atoms        : 203449   (Original: 188574 Auxiliary: 14875)
Bodies       : 105476   (Original: 90601)
  Count      : 575      (Original: 600)
Equivalences : 90000    (Atom=Atom: 0 Body=Body: 0 Other: 90000)
Tight        : Yes
Variables    : 105175   (Eliminated:    0 Frozen: 90000)
Constraints  : 45550    (Binary:  81.7% Ternary:  16.4% Other:   1.9%)

